outputs/uuf50-0102/46_n28_n41_n15.proof
-32 8 10 0
-32 -10 6 15 0
38 8 -24 40 15 0
38 40 -24 15 28 0
38 -24 47 -46 19 -8 28 0
38 -24 15 -46 19 28 0
-29 38 15 -16 19 24 28 0
-46 28 38 15 0
40 12 15 -13 -38 0
41 15 -13 -38 28 0
41 15 -16 -40 24 -38 28 0
0
