outputs/uuf50-0102/46_n28_n41_n15.res
%RESA32 50 218

219 27 159 145 3 -32 8 10 3
220 43 73 105 4 4 15 -10 6 4
221 -4 46 220 4 -32 15 6 -10 4
222 30 61 169 4 40 -44 12 -35 4
223 44 199 222 5 40 8 12 22 -35 5
224 -12 140 223 6 8 40 15 48 22 -35 6
225 -48 77 224 7 -26 8 40 15 22 -39 -35 7
226 -22 78 225 7 38 -26 8 40 15 -39 -35 7
227 35 13 226 7 38 -26 8 40 15 -39 -6 7
228 26 152 227 7 38 40 8 -24 15 -39 -6 7
229 6 221 228 8 -32 38 8 40 -24 15 -10 -39 8
230 10 219 229 7 -32 38 8 40 -24 15 -39 7
231 32 49 230 7 38 8 40 -24 15 -39 31 7
232 39 57 231 6 38 8 -24 40 15 31 6
233 -31 29 232 5 38 8 -24 40 15 5
234 -30 177 61 4 40 -29 12 36 4
235 -12 140 234 5 -29 36 40 15 48 5
236 -48 124 235 4 40 -29 36 15 4
237 29 206 236 4 40 36 38 15 4
238 -36 201 237 5 38 40 15 28 -3 5
239 3 53 238 6 38 40 -24 15 -8 28 6
240 8 233 239 5 38 40 -24 15 28 5
241 6 157 152 4 -24 26 -12 45 4
242 -26 113 241 5 -24 45 -46 -12 27 5
243 -45 116 242 6 1 -24 10 -46 -12 27 6
244 -27 145 243 6 -32 1 -24 10 -46 -12 6
245 -10 108 244 7 -32 1 2 -24 44 -46 -12 7
246 -2 165 245 8 -32 1 -24 9 44 -46 -12 -8 8
247 12 136 246 8 -32 1 36 -24 9 44 -46 -8 8
248 -9 133 247 8 -32 1 36 -24 11 44 -46 -8 8
249 -11 166 248 8 -32 1 36 -24 44 -46 20 -8 8
250 -1 143 249 9 -32 -29 36 -24 44 -46 20 -8 30 9
251 -30 177 250 8 -32 -29 36 -24 44 -46 20 -8 8
252 -20 207 251 8 -32 -29 36 -24 44 -46 19 -8 8
253 29 206 252 8 -32 36 38 -24 44 -46 19 -8 8
254 32 188 253 8 36 38 -24 44 49 -46 19 -8 8
255 -44 95 254 8 36 38 -24 49 -46 19 -8 -3 8
256 -49 70 255 8 36 38 -24 47 -46 19 -8 -3 8
257 -36 201 256 8 38 -24 47 -46 19 -8 28 -3 8
258 3 53 257 7 38 -24 47 -46 19 -8 28 7
259 6 221 152 5 -32 -24 15 -10 26 5
260 10 159 259 6 -32 -24 8 15 26 27 6
261 32 209 260 6 -24 8 47 15 26 27 6
262 -26 113 261 6 -24 8 15 47 -46 27 6
263 -27 212 262 6 -24 8 15 47 -46 -40 6
264 -8 258 263 8 38 -24 47 15 -46 19 -40 28 8
265 -47 171 264 7 38 -24 15 -46 19 -40 28 7
266 40 240 265 6 38 -24 15 -46 19 28 6
267 -10 221 145 4 -32 -27 6 15 4
268 27 92 267 5 -32 -29 6 15 31 5
269 -6 13 268 6 -32 35 -29 38 15 31 6
270 -31 125 269 7 -32 35 -29 38 -22 11 15 7
271 -35 78 270 6 -32 -29 38 -22 11 15 6
272 22 63 271 7 -32 -29 38 43 11 15 28 7
273 -11 172 272 7 -32 -29 38 43 15 -16 28 7
274 32 168 273 7 -29 38 43 15 -16 24 28 7
275 -43 94 274 7 -29 38 15 -16 19 24 28 7
276 -48 124 140 4 40 -12 36 15 4
277 12 61 276 4 40 36 30 15 4
278 -30 177 277 4 40 -29 36 15 4
279 -40 43 278 4 -29 36 37 15 4
280 -37 200 279 5 -29 36 15 24 -3 5
281 -36 201 280 5 -29 15 24 28 -3 5
282 3 99 281 6 -29 38 15 16 24 28 6
283 -16 275 282 6 -29 38 15 19 24 28 6
284 29 36 283 5 38 15 19 24 28 5
285 -24 266 284 5 38 15 -46 19 28 5
286 -19 5 285 4 -46 28 38 15 4
287 2 126 213 4 -9 36 29 15 4
288 -29 177 287 4 -30 36 15 -9 4
289 9 136 288 4 -30 36 12 15 4
290 -36 123 289 5 -30 12 15 49 -13 5
291 -49 196 290 6 -30 40 12 15 -47 -13 6
292 47 76 291 6 -30 40 12 15 -13 -38 6
293 30 61 292 5 40 12 15 -13 -38 5
294 36 136 34 4 9 27 12 -37 4
295 -27 212 294 5 8 9 12 -40 -37 5
296 -9 101 295 4 -40 8 -37 12 4
297 -8 40 296 5 12 -40 -37 -34 -33 5
298 33 112 297 5 12 22 -40 -37 -34 5
299 34 47 298 5 12 22 -40 -37 -4 5
300 4 105 299 6 12 15 -43 22 -40 -37 6
301 43 63 300 6 12 15 22 -40 -37 28 6
302 -22 42 301 7 41 12 15 48 -40 -37 28 7
303 37 43 302 6 41 12 15 48 -40 28 6
304 -48 150 303 6 41 12 15 -40 -38 28 6
305 40 293 304 6 41 12 15 -13 -38 28 6
306 -12 19 305 5 41 15 -13 -38 28 5
307 -11 175 180 3 35 -18 -33 3
308 18 102 307 4 35 28 -42 -33 4
309 33 112 308 5 35 -42 22 28 -34 5
310 -35 8 309 6 -20 -42 22 -40 28 -34 6
311 34 47 310 7 -20 28 -42 22 -40 -37 -4 7
312 42 14 311 8 -20 -19 -4 22 -40 24 -37 28 8
313 20 120 312 8 12 -19 28 22 -40 24 -37 -4 8
314 4 105 313 9 12 -19 15 -43 22 -40 24 -37 28 9
315 19 94 314 9 12 15 -16 -43 22 -40 24 -37 28 9
316 43 63 315 8 12 15 -16 22 -40 24 -37 28 8
317 -22 42 316 9 41 12 15 -16 48 -40 24 -37 28 9
318 -12 140 317 8 41 15 48 -16 -40 24 -37 28 8
319 37 43 318 7 41 15 48 -16 -40 24 28 7
320 -48 150 319 7 41 15 -16 -40 24 -38 28 7
